benchmark/results/graph__10-1000-0.10-02_2/graph__10-1000-0.10-02_2_QuintonOs_Benders_aux.lp
\ This file has been generated by DOcplex
\ ENCODING=ISO-8859-1
\Problem name: Quinton Bounded Benders_auxiliary_sub

Minimize
 obj: 0.001577287066 pi_nr_a0 + 0.003610108303 pi_nr_a1
      + 0.001522070015 pi_nr_a2 + 0.001239157345 pi_nr_a3
      + 0.000939715411 pi_nr_a4 + 0.001494768311 pi_nr_a5
      + 0.002296761462 pi_nr_a6 + 0.000895725781 pi_nr_a7
      + 0.001035196687 pi_nr_a8 + 0.001782531194 pi_nr_a9 + pi_p_a1_a0
      + pi_p_a4_a9 + pi_p_a2_a0 + pi_p_a1_a2 + pi_p_a3_a6 + pi_p_a4_a0
      + 0.000000249811 pi_d_a0_a1_proc_0 + 1.000000245227 pi_d_a1_a0_proc_0
      + 2591.999999754773 pi_d_a0_a2_proc_1 + 0.000000249811 pi_d_a0_a2_proc_0
      + 2592.999999750189 pi_d_a2_a0_proc_1 + 1.000000245227 pi_d_a2_a0_proc_0
      + 1308.000116977233 pi_d_a0_a3_proc_1
      + 1307.999880827784 pi_d_a0_a3_proc_0
      + 1285.000119172217 pi_d_a3_a0_proc_1
      + 1284.999883022767 pi_d_a3_a0_proc_0
      + 1314.931112931167 pi_d_a0_a4_proc_1
      + 1300.939333556080 pi_d_a0_a4_proc_0
      + 1292.060666443920 pi_d_a4_a0_proc_1
      + 1278.068887068833 pi_d_a4_a0_proc_0
      + 1307.999999750198 pi_d_a0_a5_proc_1
      + 1308.000000245218 pi_d_a0_a5_proc_0
      + 1284.999999754782 pi_d_a5_a0_proc_1
      + 1285.000000249802 pi_d_a5_a0_proc_0
      + 1309.841827701703 pi_d_a0_a6_proc_1
      + 1306.123745605898 pi_d_a0_a6_proc_0
      + 1286.876254394102 pi_d_a6_a0_proc_1
      + 1283.158172298297 pi_d_a6_a0_proc_0
      + 2553.687864057542 pi_d_a0_a7_proc_1 + 37.388059562300 pi_d_a0_a7_proc_0
      + 2555.611940437700 pi_d_a7_a0_proc_1 + 39.312135942458 pi_d_a7_a0_proc_0
      + 1307.999999750189 pi_d_a0_a8_proc_1
      + 1284.999999754773 pi_d_a8_a0_proc_1 + 0.096348922947 pi_d_a0_a9_proc_0
      + 0.903651572091 pi_d_a9_a0_proc_0 + 1.000000000000 pi_d_a1_a2_proc_0
      - 0.000000000000 pi_d_a2_a1_proc_0 + 1307.999880673478 pi_d_a1_a3_proc_0
      + 1284.999882682035 pi_d_a3_a1_proc_0
      + 1278.063491539673 pi_d_a1_a4_proc_0
      + 1300.944728590202 pi_d_a4_a1_proc_0
      + 1307.999999999991 pi_d_a1_a5_proc_0
      + 1284.999999999991 pi_d_a5_a1_proc_0
      + 1306.125179804695 pi_d_a1_a6_proc_0
      + 1283.156737604463 pi_d_a6_a1_proc_0 + 38.325652923380 pi_d_a1_a7_proc_0
      + 38.374542086340 pi_d_a7_a1_proc_0 + pi_d_a1_a9_proc_0
      + 0.000000000000 pi_d_a9_a1_proc_0 + 1308.000117317960 pi_d_a2_a3_proc_1
      + 1307.999880673473 pi_d_a2_a3_proc_0
      + 1285.000119326527 pi_d_a3_a2_proc_1
      + 1284.999882682040 pi_d_a3_a2_proc_0
      + 1294.806036405622 pi_d_a2_a4_proc_1
      + 1280.814256535497 pi_d_a2_a4_proc_0
      + 1312.185743464503 pi_d_a4_a2_proc_1
      + 1298.193963594378 pi_d_a4_a2_proc_0
      + 1308.000000000009 pi_d_a2_a5_proc_1
      + 1307.999999999991 pi_d_a2_a5_proc_0
      + 1285.000000000009 pi_d_a5_a2_proc_1
      + 1284.999999999991 pi_d_a5_a2_proc_0
      + 1309.843262395519 pi_d_a2_a6_proc_1
      + 1306.125179804676 pi_d_a2_a6_proc_0
      + 1286.874820195324 pi_d_a6_a2_proc_1
      + 1283.156737604481 pi_d_a6_a2_proc_0
      + 2554.208034188532 pi_d_a2_a7_proc_1 + 37.908229198252 pi_d_a2_a7_proc_0
      + 2555.091770801748 pi_d_a7_a2_proc_1 + 38.791965811468 pi_d_a7_a2_proc_0
      + 1308 pi_d_a2_a8_proc_1 + 1285.000000000000 pi_d_a8_a2_proc_1
      + 0.984373088926 pi_d_a2_a9_proc_0 + 0.015626911074 pi_d_a9_a2_proc_0
      + 7.060786066160 pi_d_a3_a4_proc_1 + 2585.068769551548 pi_d_a3_a4_proc_0
      + 7.931230448452 pi_d_a4_a3_proc_1 + 2585.939213933840 pi_d_a4_a3_proc_0
      + 0.000119417829 pi_d_a3_a5_proc_1 + 2591.999882773324 pi_d_a3_a5_proc_0
      + 1.000117226676 pi_d_a5_a3_proc_1 + 2592.999880582171 pi_d_a5_a3_proc_0
      + 2.874939521725 pi_d_a3_a6_proc_1 + 2591.156620286396 pi_d_a3_a6_proc_0
      + 1.843379713604 pi_d_a6_a3_proc_1 + 2590.125060478275 pi_d_a6_a3_proc_0
      + 1269.771707061643 pi_d_a3_a7_proc_1
      + 1345.471665426876 pi_d_a3_a7_proc_0
      + 1247.528334573124 pi_d_a7_a3_proc_1
      + 1323.228292938357 pi_d_a7_a3_proc_0 + 1.000119326522 pi_d_a3_a8_proc_1
      + 0.000117317965 pi_d_a8_a3_proc_1 + 1307.999880673478 pi_d_a3_a9_proc_0
      + 1284.999882682035 pi_d_a9_a3_proc_0 + 8.055268630508 pi_d_a4_a5_proc_1
      + 2586.063488760365 pi_d_a4_a5_proc_0 + 6.936511239635 pi_d_a5_a4_proc_1
      + 2584.944731369492 pi_d_a5_a4_proc_0 + 9.908604449423 pi_d_a4_a6_proc_1
      + 2584.198741988456 pi_d_a4_a6_proc_0 + 8.801258011544 pi_d_a6_a4_proc_1
      + 2583.091395550577 pi_d_a6_a4_proc_0
      + 1256.556107873615 pi_d_a4_a7_proc_1
      + 1318.264523013211 pi_d_a4_a7_proc_0
      + 1274.735476986790 pi_d_a7_a4_proc_1
      + 1336.443892126385 pi_d_a7_a4_proc_0 + 8.055268630499 pi_d_a4_a8_proc_1
      + 6.936511239626 pi_d_a8_a4_proc_1 + 1300.944731369501 pi_d_a4_a9_proc_0
      + 1278.063488760374 pi_d_a9_a4_proc_0 + 2.852359257814 pi_d_a5_a6_proc_1
      + 2591.134276666954 pi_d_a5_a6_proc_0 + 1.865723333046 pi_d_a6_a5_proc_1
      + 2590.147640742186 pi_d_a6_a5_proc_0
      + 1269.771604690765 pi_d_a5_a7_proc_1
      + 1345.471799700467 pi_d_a5_a7_proc_0
      + 1247.528200299533 pi_d_a7_a5_proc_1
      + 1323.228395309235 pi_d_a7_a5_proc_0 + 1.000000000009 pi_d_a5_a8_proc_1
      + 0.000000000009 pi_d_a8_a5_proc_1 + 1307.999999999991 pi_d_a5_a9_proc_0
      + 1284.999999999991 pi_d_a9_a5_proc_0
      + 1249.288586617748 pi_d_a6_a7_proc_1
      + 1321.270699036626 pi_d_a6_a7_proc_0
      + 1271.729300963374 pi_d_a7_a6_proc_1
      + 1343.711413382252 pi_d_a7_a6_proc_0 + 2.874820195305 pi_d_a6_a8_proc_1
      + 1.843262395537 pi_d_a8_a6_proc_1 + 1306.125179804695 pi_d_a6_a9_proc_0
      + 1283.156737604463 pi_d_a9_a6_proc_0
      + 1247.529571675323 pi_d_a7_a8_proc_1
      + 1269.770233314957 pi_d_a8_a7_proc_1 + 39.985807117137 pi_d_a7_a9_proc_0
      + 36.714387892583 pi_d_a9_a7_proc_0 + 0.999999999809 pi_y2_a0_proc_0
      + 0.000000000191 pi_y2_a0_proc_1 + pi_y2_a1_proc_0
      + 1.000000000000 pi_y2_a2_proc_0 + 0.000000000000 pi_y2_a2_proc_1
      + 0.000000091298 pi_y2_a3_proc_0 + 0.999999908702 pi_y2_a3_proc_1
      + 0.005398063221 pi_y2_a4_proc_0 + 0.994601936779 pi_y2_a4_proc_1
      + 0.000000000000 pi_y2_a5_proc_0 + 1.000000000000 pi_y2_a5_proc_1
      + 0.001434445444 pi_y2_a6_proc_0 + 0.998565554556 pi_y2_a6_proc_1
      + 0.970794677851 pi_y2_a7_proc_0 + 0.029205322149 pi_y2_a7_proc_1
      + pi_y2_a8_proc_1 + pi_y2_a9_proc_0
Subject To
 c1: 0.001577287066 pi_nr_a0 + 0.003610108303 pi_nr_a1 + 0.001522070015 pi_nr_a2
     + 0.001239157373 pi_nr_a3 + 0.000938967136 pi_nr_a4
     + 0.001494768311 pi_nr_a5 + 0.002298850575 pi_nr_a6
     + 0.000892857143 pi_nr_a7 + 0.001035196687 pi_nr_a8
     + 0.001782531194 pi_nr_a9 + pi_p_a1_a0 + pi_p_a4_a9 + pi_p_a2_a0
     + pi_p_a1_a2 + pi_p_a3_a6 + pi_p_a4_a0 + pi_d_a1_a0_proc_0
     + 2592 pi_d_a0_a2_proc_1 + 2593 pi_d_a2_a0_proc_1 + pi_d_a2_a0_proc_0
     + 1308 pi_d_a0_a3_proc_1 + 1308 pi_d_a0_a3_proc_0 + 1285 pi_d_a3_a0_proc_1
     + 1285 pi_d_a3_a0_proc_0 + 1308 pi_d_a0_a4_proc_1 + 1308 pi_d_a0_a4_proc_0
     + 1285 pi_d_a4_a0_proc_1 + 1285 pi_d_a4_a0_proc_0 + 1308 pi_d_a0_a5_proc_1
     + 1308 pi_d_a0_a5_proc_0 + 1285 pi_d_a5_a0_proc_1 + 1285 pi_d_a5_a0_proc_0
     + 1308 pi_d_a0_a6_proc_1 + 1308 pi_d_a0_a6_proc_0 + 1285 pi_d_a6_a0_proc_1
     + 1285 pi_d_a6_a0_proc_0 + 2591 pi_d_a0_a7_proc_1 - pi_d_a0_a7_proc_0
     + 2594 pi_d_a7_a0_proc_1 + 2 pi_d_a7_a0_proc_0 + 1308 pi_d_a0_a8_proc_1
     + 1285 pi_d_a8_a0_proc_1 + pi_d_a9_a0_proc_0 + pi_d_a1_a2_proc_0
     + 1308 pi_d_a1_a3_proc_0 + 1285 pi_d_a3_a1_proc_0 + 1285 pi_d_a1_a4_proc_0
     + 1308 pi_d_a4_a1_proc_0 + 1308 pi_d_a1_a5_proc_0 + 1285 pi_d_a5_a1_proc_0
     + 1308 pi_d_a1_a6_proc_0 + 1285 pi_d_a6_a1_proc_0 + pi_d_a7_a1_proc_0
     + pi_d_a1_a9_proc_0 + 1308 pi_d_a2_a3_proc_1 + 1308 pi_d_a2_a3_proc_0
     + 1285 pi_d_a3_a2_proc_1 + 1285 pi_d_a3_a2_proc_0 + 1285 pi_d_a2_a4_proc_1
     + 1285 pi_d_a2_a4_proc_0 + 1308 pi_d_a4_a2_proc_1 + 1308 pi_d_a4_a2_proc_0
     + 1308 pi_d_a2_a5_proc_1 + 1308 pi_d_a2_a5_proc_0 + 1285 pi_d_a5_a2_proc_1
     + 1285 pi_d_a5_a2_proc_0 + 1308 pi_d_a2_a6_proc_1 + 1308 pi_d_a2_a6_proc_0
     + 1285 pi_d_a6_a2_proc_1 + 1285 pi_d_a6_a2_proc_0 + 2592 pi_d_a2_a7_proc_1
     + 2593 pi_d_a7_a2_proc_1 + pi_d_a7_a2_proc_0 + 1308 pi_d_a2_a8_proc_1
     + 1285 pi_d_a8_a2_proc_1 + pi_d_a2_a9_proc_0 + 2592 pi_d_a3_a4_proc_0
     + pi_d_a4_a3_proc_1 + 2593 pi_d_a4_a3_proc_0 + 2592 pi_d_a3_a5_proc_0
     + pi_d_a5_a3_proc_1 + 2593 pi_d_a5_a3_proc_0 + pi_d_a3_a6_proc_1
     + 2593 pi_d_a3_a6_proc_0 + 2592 pi_d_a6_a3_proc_0 + 1308 pi_d_a3_a7_proc_1
     + 1308 pi_d_a3_a7_proc_0 + 1285 pi_d_a7_a3_proc_1 + 1285 pi_d_a7_a3_proc_0
     + pi_d_a3_a8_proc_1 + 1308 pi_d_a3_a9_proc_0 + 1285 pi_d_a9_a3_proc_0
     + pi_d_a4_a5_proc_1 + 2593 pi_d_a4_a5_proc_0 + 2592 pi_d_a5_a4_proc_0
     + pi_d_a4_a6_proc_1 + 2593 pi_d_a4_a6_proc_0 + 2592 pi_d_a6_a4_proc_0
     + 1285 pi_d_a4_a7_proc_1 + 1285 pi_d_a4_a7_proc_0 + 1308 pi_d_a7_a4_proc_1
     + 1308 pi_d_a7_a4_proc_0 + pi_d_a4_a8_proc_1 + 1308 pi_d_a4_a9_proc_0
     + 1285 pi_d_a9_a4_proc_0 + pi_d_a5_a6_proc_1 + 2593 pi_d_a5_a6_proc_0
     + 2592 pi_d_a6_a5_proc_0 + 1308 pi_d_a5_a7_proc_1 + 1308 pi_d_a5_a7_proc_0
     + 1285 pi_d_a7_a5_proc_1 + 1285 pi_d_a7_a5_proc_0 + pi_d_a5_a8_proc_1
     + 1308 pi_d_a5_a9_proc_0 + 1285 pi_d_a9_a5_proc_0 + 1285 pi_d_a6_a7_proc_1
     + 1285 pi_d_a6_a7_proc_0 + 1308 pi_d_a7_a6_proc_1 + 1308 pi_d_a7_a6_proc_0
     + pi_d_a6_a8_proc_1 + 1308 pi_d_a6_a9_proc_0 + 1285 pi_d_a9_a6_proc_0
     + 1285 pi_d_a7_a8_proc_1 + 1308 pi_d_a8_a7_proc_1 + 2 pi_d_a7_a9_proc_0
     - pi_d_a9_a7_proc_0 + pi_y2_a0_proc_0 + pi_y2_a1_proc_0 + pi_y2_a2_proc_0
     + pi_y2_a3_proc_1 + pi_y2_a4_proc_1 + pi_y2_a5_proc_1 + pi_y2_a6_proc_1
     + pi_y2_a7_proc_0 + pi_y2_a8_proc_1 + pi_y2_a9_proc_0 = 0.000191094974
 c2: pi_nr_a0 + pi_nr_a1 + pi_nr_a2 + pi_nr_a3 + pi_nr_a4 + pi_nr_a5 + pi_nr_a6
     + pi_nr_a7 + pi_nr_a8 + pi_nr_a9 - pi_y1_a0 - pi_y1_a1 - pi_y1_a2
     - pi_y1_a3 - pi_y1_a4 - pi_y1_a5 - pi_y1_a6 - pi_y1_a7 - pi_y1_a8
     - pi_y1_a9 >= 1
 c3: - pi_p_a1_a0 + pi_p_a0_a8 - pi_p_a2_a0 + pi_p_a0_a3 - pi_p_a4_a0
     + pi_p_a0_a6 + pi_d_a0_a1_proc_0 - pi_d_a1_a0_proc_0 + pi_d_a0_a2_proc_1
     + pi_d_a0_a2_proc_0 - pi_d_a2_a0_proc_1 - pi_d_a2_a0_proc_0
     + pi_d_a0_a3_proc_1 + pi_d_a0_a3_proc_0 - pi_d_a3_a0_proc_1
     - pi_d_a3_a0_proc_0 + pi_d_a0_a4_proc_1 + pi_d_a0_a4_proc_0
     - pi_d_a4_a0_proc_1 - pi_d_a4_a0_proc_0 + pi_d_a0_a5_proc_1
     + pi_d_a0_a5_proc_0 - pi_d_a5_a0_proc_1 - pi_d_a5_a0_proc_0
     + pi_d_a0_a6_proc_1 + pi_d_a0_a6_proc_0 - pi_d_a6_a0_proc_1
     - pi_d_a6_a0_proc_0 + pi_d_a0_a7_proc_1 + pi_d_a0_a7_proc_0
     - pi_d_a7_a0_proc_1 - pi_d_a7_a0_proc_0 + pi_d_a0_a8_proc_1
     - pi_d_a8_a0_proc_1 + pi_d_a0_a9_proc_0 - pi_d_a9_a0_proc_0 >= 0
 c4: 634 pi_p_a0_a8 + 634 pi_p_a0_a3 + 634 pi_p_a0_a6 + 634 pi_d_a0_a1_proc_0
     + 634 pi_d_a0_a2_proc_0 + 634 pi_d_a0_a3_proc_0 + 634 pi_d_a0_a4_proc_0
     + 634 pi_d_a0_a5_proc_0 + 634 pi_d_a0_a6_proc_0 + 634 pi_d_a0_a7_proc_0
     + 634 pi_d_a0_a9_proc_0 + pi_y1_a0 + pi_y2_a0_proc_0 >= 0
 c5: 1185 pi_p_a0_a8 + 1185 pi_p_a0_a3 + 1185 pi_p_a0_a6
     + 1185 pi_d_a0_a2_proc_1 + 1185 pi_d_a0_a3_proc_1 + 1185 pi_d_a0_a4_proc_1
     + 1185 pi_d_a0_a5_proc_1 + 1185 pi_d_a0_a6_proc_1 + 1185 pi_d_a0_a7_proc_1
     + 1185 pi_d_a0_a8_proc_1 + pi_y1_a0 + pi_y2_a0_proc_1 >= 0
 c6: pi_p_a1_a0 - pi_p_a2_a1 - pi_p_a3_a1 + pi_p_a1_a2 - pi_d_a0_a1_proc_0
     + pi_d_a1_a0_proc_0 + pi_d_a1_a2_proc_0 - pi_d_a2_a1_proc_0
     + pi_d_a1_a3_proc_0 - pi_d_a3_a1_proc_0 + pi_d_a1_a4_proc_0
     - pi_d_a4_a1_proc_0 + pi_d_a1_a5_proc_0 - pi_d_a5_a1_proc_0
     + pi_d_a1_a6_proc_0 - pi_d_a6_a1_proc_0 + pi_d_a1_a7_proc_0
     - pi_d_a7_a1_proc_0 + pi_d_a1_a9_proc_0 - pi_d_a9_a1_proc_0 >= 0
 c7: 277 pi_p_a1_a0 + 277 pi_p_a1_a2 + 277 pi_d_a1_a0_proc_0
     + 277 pi_d_a1_a2_proc_0 + 277 pi_d_a1_a3_proc_0 + 277 pi_d_a1_a4_proc_0
     + 277 pi_d_a1_a5_proc_0 + 277 pi_d_a1_a6_proc_0 + 277 pi_d_a1_a7_proc_0
     + 277 pi_d_a1_a9_proc_0 + pi_y1_a1 + pi_y2_a1_proc_0 >= 0
 c8: pi_p_a2_a1 + pi_p_a2_a4 + pi_p_a2_a0 - pi_p_a1_a2 - pi_p_a5_a2
     - pi_d_a0_a2_proc_1 - pi_d_a0_a2_proc_0 + pi_d_a2_a0_proc_1
     + pi_d_a2_a0_proc_0 - pi_d_a1_a2_proc_0 + pi_d_a2_a1_proc_0
     + pi_d_a2_a3_proc_1 + pi_d_a2_a3_proc_0 - pi_d_a3_a2_proc_1
     - pi_d_a3_a2_proc_0 + pi_d_a2_a4_proc_1 + pi_d_a2_a4_proc_0
     - pi_d_a4_a2_proc_1 - pi_d_a4_a2_proc_0 + pi_d_a2_a5_proc_1
     + pi_d_a2_a5_proc_0 - pi_d_a5_a2_proc_1 - pi_d_a5_a2_proc_0
     + pi_d_a2_a6_proc_1 + pi_d_a2_a6_proc_0 - pi_d_a6_a2_proc_1
     - pi_d_a6_a2_proc_0 + pi_d_a2_a7_proc_1 + pi_d_a2_a7_proc_0
     - pi_d_a7_a2_proc_1 - pi_d_a7_a2_proc_0 + pi_d_a2_a8_proc_1
     - pi_d_a8_a2_proc_1 + pi_d_a2_a9_proc_0 - pi_d_a9_a2_proc_0 >= 0
 c9: 657 pi_p_a2_a1 + 657 pi_p_a2_a4 + 657 pi_p_a2_a0 + 657 pi_d_a2_a0_proc_0
     + 657 pi_d_a2_a1_proc_0 + 657 pi_d_a2_a3_proc_0 + 657 pi_d_a2_a4_proc_0
     + 657 pi_d_a2_a5_proc_0 + 657 pi_d_a2_a6_proc_0 + 657 pi_d_a2_a7_proc_0
     + 657 pi_d_a2_a9_proc_0 + pi_y1_a2 + pi_y2_a2_proc_0 >= 0
 c10: 1296 pi_p_a2_a1 + 1296 pi_p_a2_a4 + 1296 pi_p_a2_a0
      + 1296 pi_d_a2_a0_proc_1 + 1296 pi_d_a2_a3_proc_1 + 1296 pi_d_a2_a4_proc_1
      + 1296 pi_d_a2_a5_proc_1 + 1296 pi_d_a2_a6_proc_1 + 1296 pi_d_a2_a7_proc_1
      + 1296 pi_d_a2_a8_proc_1 + pi_y1_a2 + pi_y2_a2_proc_1 >= 0
 c11: pi_p_a3_a1 + pi_p_a3_a5 - pi_p_a6_a3 + pi_p_a3_a6 - pi_p_a0_a3
      - pi_d_a0_a3_proc_1 - pi_d_a0_a3_proc_0 + pi_d_a3_a0_proc_1
      + pi_d_a3_a0_proc_0 - pi_d_a1_a3_proc_0 + pi_d_a3_a1_proc_0
      - pi_d_a2_a3_proc_1 - pi_d_a2_a3_proc_0 + pi_d_a3_a2_proc_1
      + pi_d_a3_a2_proc_0 + pi_d_a3_a4_proc_1 + pi_d_a3_a4_proc_0
      - pi_d_a4_a3_proc_1 - pi_d_a4_a3_proc_0 + pi_d_a3_a5_proc_1
      + pi_d_a3_a5_proc_0 - pi_d_a5_a3_proc_1 - pi_d_a5_a3_proc_0
      + pi_d_a3_a6_proc_1 + pi_d_a3_a6_proc_0 - pi_d_a6_a3_proc_1
      - pi_d_a6_a3_proc_0 + pi_d_a3_a7_proc_1 + pi_d_a3_a7_proc_0
      - pi_d_a7_a3_proc_1 - pi_d_a7_a3_proc_0 + pi_d_a3_a8_proc_1
      - pi_d_a8_a3_proc_1 + pi_d_a3_a9_proc_0 - pi_d_a9_a3_proc_0 >= 0
 c12: 1071 pi_p_a3_a1 + 1071 pi_p_a3_a5 + 1071 pi_p_a3_a6
      + 1071 pi_d_a3_a0_proc_0 + 1071 pi_d_a3_a1_proc_0 + 1071 pi_d_a3_a2_proc_0
      + 1071 pi_d_a3_a4_proc_0 + 1071 pi_d_a3_a5_proc_0 + 1071 pi_d_a3_a6_proc_0
      + 1071 pi_d_a3_a7_proc_0 + 1071 pi_d_a3_a9_proc_0 + pi_y1_a3
      + pi_y2_a3_proc_0 >= 0
 c13: 807 pi_p_a3_a1 + 807 pi_p_a3_a5 + 807 pi_p_a3_a6 + 807 pi_d_a3_a0_proc_1
      + 807 pi_d_a3_a2_proc_1 + 807 pi_d_a3_a4_proc_1 + 807 pi_d_a3_a5_proc_1
      + 807 pi_d_a3_a6_proc_1 + 807 pi_d_a3_a7_proc_1 + 807 pi_d_a3_a8_proc_1
      + pi_y1_a3 + pi_y2_a3_proc_1 >= 0
 c14: - pi_p_a2_a4 + pi_p_a4_a7 - pi_p_a9_a4 + pi_p_a4_a9 + pi_p_a4_a0
      - pi_d_a0_a4_proc_1 - pi_d_a0_a4_proc_0 + pi_d_a4_a0_proc_1
      + pi_d_a4_a0_proc_0 - pi_d_a1_a4_proc_0 + pi_d_a4_a1_proc_0
      - pi_d_a2_a4_proc_1 - pi_d_a2_a4_proc_0 + pi_d_a4_a2_proc_1
      + pi_d_a4_a2_proc_0 - pi_d_a3_a4_proc_1 - pi_d_a3_a4_proc_0
      + pi_d_a4_a3_proc_1 + pi_d_a4_a3_proc_0 + pi_d_a4_a5_proc_1
      + pi_d_a4_a5_proc_0 - pi_d_a5_a4_proc_1 - pi_d_a5_a4_proc_0
      + pi_d_a4_a6_proc_1 + pi_d_a4_a6_proc_0 - pi_d_a6_a4_proc_1
      - pi_d_a6_a4_proc_0 + pi_d_a4_a7_proc_1 + pi_d_a4_a7_proc_0
      - pi_d_a7_a4_proc_1 - pi_d_a7_a4_proc_0 + pi_d_a4_a8_proc_1
      - pi_d_a8_a4_proc_1 + pi_d_a4_a9_proc_0 - pi_d_a9_a4_proc_0 >= 0
 c15: 928 pi_p_a4_a7 + 928 pi_p_a4_a9 + 928 pi_p_a4_a0 + 928 pi_d_a4_a0_proc_0
      + 928 pi_d_a4_a1_proc_0 + 928 pi_d_a4_a2_proc_0 + 928 pi_d_a4_a3_proc_0
      + 928 pi_d_a4_a5_proc_0 + 928 pi_d_a4_a6_proc_0 + 928 pi_d_a4_a7_proc_0
      + 928 pi_d_a4_a9_proc_0 + pi_y1_a4 + pi_y2_a4_proc_0 >= 0
 c16: 1065 pi_p_a4_a7 + 1065 pi_p_a4_a9 + 1065 pi_p_a4_a0
      + 1065 pi_d_a4_a0_proc_1 + 1065 pi_d_a4_a2_proc_1 + 1065 pi_d_a4_a3_proc_1
      + 1065 pi_d_a4_a5_proc_1 + 1065 pi_d_a4_a6_proc_1 + 1065 pi_d_a4_a7_proc_1
      + 1065 pi_d_a4_a8_proc_1 + pi_y1_a4 + pi_y2_a4_proc_1 >= 0
 c17: - pi_p_a3_a5 + pi_p_a5_a2 - pi_d_a0_a5_proc_1 - pi_d_a0_a5_proc_0
      + pi_d_a5_a0_proc_1 + pi_d_a5_a0_proc_0 - pi_d_a1_a5_proc_0
      + pi_d_a5_a1_proc_0 - pi_d_a2_a5_proc_1 - pi_d_a2_a5_proc_0
      + pi_d_a5_a2_proc_1 + pi_d_a5_a2_proc_0 - pi_d_a3_a5_proc_1
      - pi_d_a3_a5_proc_0 + pi_d_a5_a3_proc_1 + pi_d_a5_a3_proc_0
      - pi_d_a4_a5_proc_1 - pi_d_a4_a5_proc_0 + pi_d_a5_a4_proc_1
      + pi_d_a5_a4_proc_0 + pi_d_a5_a6_proc_1 + pi_d_a5_a6_proc_0
      - pi_d_a6_a5_proc_1 - pi_d_a6_a5_proc_0 + pi_d_a5_a7_proc_1
      + pi_d_a5_a7_proc_0 - pi_d_a7_a5_proc_1 - pi_d_a7_a5_proc_0
      + pi_d_a5_a8_proc_1 - pi_d_a8_a5_proc_1 + pi_d_a5_a9_proc_0
      - pi_d_a9_a5_proc_0 >= 0
 c18: 1121 pi_p_a5_a2 + 1121 pi_d_a5_a0_proc_0 + 1121 pi_d_a5_a1_proc_0
      + 1121 pi_d_a5_a2_proc_0 + 1121 pi_d_a5_a3_proc_0 + 1121 pi_d_a5_a4_proc_0
      + 1121 pi_d_a5_a6_proc_0 + 1121 pi_d_a5_a7_proc_0 + 1121 pi_d_a5_a9_proc_0
      + pi_y1_a5 + pi_y2_a5_proc_0 >= 0
 c19: 669 pi_p_a5_a2 + 669 pi_d_a5_a0_proc_1 + 669 pi_d_a5_a2_proc_1
      + 669 pi_d_a5_a3_proc_1 + 669 pi_d_a5_a4_proc_1 + 669 pi_d_a5_a6_proc_1
      + 669 pi_d_a5_a7_proc_1 + 669 pi_d_a5_a8_proc_1 + pi_y1_a5
      + pi_y2_a5_proc_1 >= 0
 c20: pi_p_a6_a3 - pi_p_a3_a6 - pi_p_a0_a6 - pi_p_a8_a6 - pi_d_a0_a6_proc_1
      - pi_d_a0_a6_proc_0 + pi_d_a6_a0_proc_1 + pi_d_a6_a0_proc_0
      - pi_d_a1_a6_proc_0 + pi_d_a6_a1_proc_0 - pi_d_a2_a6_proc_1
      - pi_d_a2_a6_proc_0 + pi_d_a6_a2_proc_1 + pi_d_a6_a2_proc_0
      - pi_d_a3_a6_proc_1 - pi_d_a3_a6_proc_0 + pi_d_a6_a3_proc_1
      + pi_d_a6_a3_proc_0 - pi_d_a4_a6_proc_1 - pi_d_a4_a6_proc_0
      + pi_d_a6_a4_proc_1 + pi_d_a6_a4_proc_0 - pi_d_a5_a6_proc_1
      - pi_d_a5_a6_proc_0 + pi_d_a6_a5_proc_1 + pi_d_a6_a5_proc_0
      + pi_d_a6_a7_proc_1 + pi_d_a6_a7_proc_0 - pi_d_a7_a6_proc_1
      - pi_d_a7_a6_proc_0 + pi_d_a6_a8_proc_1 - pi_d_a8_a6_proc_1
      + pi_d_a6_a9_proc_0 - pi_d_a9_a6_proc_0 >= 0
 c21: 1187 pi_p_a6_a3 + 1187 pi_d_a6_a0_proc_0 + 1187 pi_d_a6_a1_proc_0
      + 1187 pi_d_a6_a2_proc_0 + 1187 pi_d_a6_a3_proc_0 + 1187 pi_d_a6_a4_proc_0
      + 1187 pi_d_a6_a5_proc_0 + 1187 pi_d_a6_a7_proc_0 + 1187 pi_d_a6_a9_proc_0
      + pi_y1_a6 + pi_y2_a6_proc_0 >= 0
 c22: 435 pi_p_a6_a3 + 435 pi_d_a6_a0_proc_1 + 435 pi_d_a6_a2_proc_1
      + 435 pi_d_a6_a3_proc_1 + 435 pi_d_a6_a4_proc_1 + 435 pi_d_a6_a5_proc_1
      + 435 pi_d_a6_a7_proc_1 + 435 pi_d_a6_a8_proc_1 + pi_y1_a6
      + pi_y2_a6_proc_1 >= 0
 c23: - pi_p_a4_a7 - pi_d_a0_a7_proc_1 - pi_d_a0_a7_proc_0 + pi_d_a7_a0_proc_1
      + pi_d_a7_a0_proc_0 - pi_d_a1_a7_proc_0 + pi_d_a7_a1_proc_0
      - pi_d_a2_a7_proc_1 - pi_d_a2_a7_proc_0 + pi_d_a7_a2_proc_1
      + pi_d_a7_a2_proc_0 - pi_d_a3_a7_proc_1 - pi_d_a3_a7_proc_0
      + pi_d_a7_a3_proc_1 + pi_d_a7_a3_proc_0 - pi_d_a4_a7_proc_1
      - pi_d_a4_a7_proc_0 + pi_d_a7_a4_proc_1 + pi_d_a7_a4_proc_0
      - pi_d_a5_a7_proc_1 - pi_d_a5_a7_proc_0 + pi_d_a7_a5_proc_1
      + pi_d_a7_a5_proc_0 - pi_d_a6_a7_proc_1 - pi_d_a6_a7_proc_0
      + pi_d_a7_a6_proc_1 + pi_d_a7_a6_proc_0 + pi_d_a7_a8_proc_1
      - pi_d_a8_a7_proc_1 + pi_d_a7_a9_proc_0 - pi_d_a9_a7_proc_0 >= 0
 c24: 1120 pi_d_a7_a0_proc_0 + 1120 pi_d_a7_a1_proc_0 + 1120 pi_d_a7_a2_proc_0
      + 1120 pi_d_a7_a3_proc_0 + 1120 pi_d_a7_a4_proc_0 + 1120 pi_d_a7_a5_proc_0
      + 1120 pi_d_a7_a6_proc_0 + 1120 pi_d_a7_a9_proc_0 + pi_y1_a7
      + pi_y2_a7_proc_0 >= 0
 c25: 1009 pi_d_a7_a0_proc_1 + 1009 pi_d_a7_a2_proc_1 + 1009 pi_d_a7_a3_proc_1
      + 1009 pi_d_a7_a4_proc_1 + 1009 pi_d_a7_a5_proc_1 + 1009 pi_d_a7_a6_proc_1
      + 1009 pi_d_a7_a8_proc_1 + pi_y1_a7 + pi_y2_a7_proc_1 >= 0
 c26: - pi_p_a0_a8 + pi_p_a8_a6 - pi_d_a0_a8_proc_1 + pi_d_a8_a0_proc_1
      - pi_d_a2_a8_proc_1 + pi_d_a8_a2_proc_1 - pi_d_a3_a8_proc_1
      + pi_d_a8_a3_proc_1 - pi_d_a4_a8_proc_1 + pi_d_a8_a4_proc_1
      - pi_d_a5_a8_proc_1 + pi_d_a8_a5_proc_1 - pi_d_a6_a8_proc_1
      + pi_d_a8_a6_proc_1 - pi_d_a7_a8_proc_1 + pi_d_a8_a7_proc_1 >= 0
 c27: 966 pi_p_a8_a6 + 966 pi_d_a8_a0_proc_1 + 966 pi_d_a8_a2_proc_1
      + 966 pi_d_a8_a3_proc_1 + 966 pi_d_a8_a4_proc_1 + 966 pi_d_a8_a5_proc_1
      + 966 pi_d_a8_a6_proc_1 + 966 pi_d_a8_a7_proc_1 + pi_y1_a8
      + pi_y2_a8_proc_1 >= 0
 c28: pi_p_a9_a4 - pi_p_a4_a9 - pi_d_a0_a9_proc_0 + pi_d_a9_a0_proc_0
      - pi_d_a1_a9_proc_0 + pi_d_a9_a1_proc_0 - pi_d_a2_a9_proc_0
      + pi_d_a9_a2_proc_0 - pi_d_a3_a9_proc_0 + pi_d_a9_a3_proc_0
      - pi_d_a4_a9_proc_0 + pi_d_a9_a4_proc_0 - pi_d_a5_a9_proc_0
      + pi_d_a9_a5_proc_0 - pi_d_a6_a9_proc_0 + pi_d_a9_a6_proc_0
      - pi_d_a7_a9_proc_0 + pi_d_a9_a7_proc_0 >= 0
 c29: 561 pi_p_a9_a4 + 561 pi_d_a9_a0_proc_0 + 561 pi_d_a9_a1_proc_0
      + 561 pi_d_a9_a2_proc_0 + 561 pi_d_a9_a3_proc_0 + 561 pi_d_a9_a4_proc_0
      + 561 pi_d_a9_a5_proc_0 + 561 pi_d_a9_a6_proc_0 + 561 pi_d_a9_a7_proc_0
      + pi_y1_a9 + pi_y2_a9_proc_0 >= 0

Bounds
       pi_y1_a0 Free
       pi_y1_a1 Free
       pi_y1_a2 Free
       pi_y1_a3 Free
       pi_y1_a4 Free
       pi_y1_a5 Free
       pi_y1_a6 Free
       pi_y1_a7 Free
       pi_y1_a8 Free
       pi_y1_a9 Free
End
