benchmark/results/graph__10-1000-0.10-02_2/graph__10-1000-0.10-02_2_QuintonOs_Benders_aux.txt
solution for: Quinton Bounded Benders_auxiliary_sub
objective: 0.000332416
status: OPTIMAL_SOLUTION(2)
pi_p_a2_a4=0.000
pi_p_a3_a5=0.000
pi_p_a6_a3=0.000
pi_p_a0_a8=0.000
pi_p_a5_a2=0.000
pi_p_a4_a0=0.000
pi_p_a8_a6=0.000
pi_y1_a0=-0.121
pi_y1_a2=-0.126
pi_y1_a3=-0.154
pi_y1_a4=-0.204
pi_y1_a5=-0.128
pi_y1_a6=-0.083
pi_y1_a8=-0.185
pi_y2_a4_proc_0=0.026
